10 324 1079 1 5 4
11 1144 4190 1 5 19
12 2419 9964 1 4 44
13 8926 40084 1 7 171
14 4074 22802 1 3 81
15 12369 72218 1 8 272
16 36054 226265 1 10 862
17 155835 1011269 1 23 4016
18 411978 2562472 1 38 13368
19 660023 4511967 1 37 23198
20 1644613 12358622 1 41 63607